(set-info :smt-lib-version 2.6)
(set-logic UFNIA)
(set-info :source |
Generated by: Geoff Sutcliffe
Generated on: 2026-03-11
Generator: TPTPWorld
Application: Benchmarking automated theorem provers
Time limit: 120.0

These benchmarks are translations from the TPTP Library (Thousands of
Problems for Theorem Provers), see http://www.cs.miami.edu/~tptp/

The TPTP is maintained by Geoff Sutcliffe, and he contributed this
selection of benchmarks to SMT-LIB.  They were exported from the
v9.2.1 realease of TPTP.
|)
(set-info :category "industrial")
(set-info :status unknown)
; SZS status Success
(declare-sort $$unsorted 0)
(declare-fun tptp.v0 (Int) Int)
(declare-fun tptp.u2 (Int Int) Int)
(declare-fun tptp.i3 () Int)
(declare-fun tptp.f2 (Int) Int)
(declare-fun |tptp.'div:(Int*Int)>Int'| (Int Int) Int)
(declare-fun tptp.w3 (Int) Int)
(declare-fun tptp.v3 (Int Int Int) Int)
(declare-fun tptp.u0 (Int Int) Int)
(declare-fun tptp.j3 () Int)
(declare-fun tptp.i1 () Int)
(declare-fun tptp.v1 (Int Int Int) Int)
(declare-fun tptp.w1 (Int) Int)
(declare-fun tptp.v2 (Int) Int)
(declare-fun tptp.h3 (Int) Int)
(declare-fun tptp.u1 (Int Int Int) Int)
(declare-fun tptp.h1 (Int) Int)
(declare-fun tptp.h2 (Int) Int)
(declare-fun tptp.u3 (Int Int Int) Int)
(declare-fun tptp.g3 (Int) Int)
(declare-fun tptp.j1 () Int)
(declare-fun tptp.fast (Int) Int)
(declare-fun tptp.g0 () Int)
(declare-fun tptp.f1 (Int Int) Int)
(declare-fun tptp.h0 (Int) Int)
(declare-fun tptp.g1 (Int) Int)
(declare-fun tptp.small (Int) Int)
(declare-fun tptp.f0 (Int) Int)
(declare-fun tptp.g2 () Int)
(declare-fun tptp.f3 (Int Int) Int)
(assert (forall ((X Int)) (= (tptp.f0 X) (* X X))))
(assert (= tptp.g0 1))
(assert (forall ((X Int) (Y Int)) (= (tptp.f1 X Y) (+ (+ X X) Y))))
(assert (forall ((X Int)) (= (tptp.g1 X) X)))
(assert (forall ((X Int)) (= (tptp.h1 X) (+ X X))))
(assert (= tptp.i1 1))
(assert (= tptp.j1 0))
(assert (forall ((X Int) (Y Int) (Z Int)) (let ((_let_1 (- X 1))) (let ((_let_2 (tptp.u1 X Y Z))) (let ((_let_3 (<= X 0))) (and (=> _let_3 (= _let_2 Y)) (=> (not _let_3) (= _let_2 (tptp.f1 (tptp.u1 _let_1 Y Z) (tptp.v1 _let_1 Y Z))))))))))
(assert (forall ((X Int) (Y Int) (Z Int)) (let ((_let_1 (tptp.v1 X Y Z))) (let ((_let_2 (<= X 0))) (and (=> _let_2 (= _let_1 Z)) (=> (not _let_2) (= _let_1 (tptp.g1 (tptp.u1 (- X 1) Y Z)))))))))
(assert (forall ((X Int)) (= (tptp.w1 X) (tptp.u1 (tptp.h1 X) tptp.i1 tptp.j1))))
(assert (forall ((X Int)) (= (tptp.h0 X) (tptp.w1 X))))
(assert (forall ((X Int) (Y Int)) (let ((_let_1 (tptp.u0 X Y))) (let ((_let_2 (<= X 0))) (and (=> _let_2 (= _let_1 Y)) (=> (not _let_2) (= _let_1 (tptp.f0 (tptp.u0 (- X 1) Y)))))))))
(assert (forall ((X Int)) (= (tptp.v0 X) (tptp.u0 tptp.g0 (tptp.h0 X)))))
(assert (forall ((X Int)) (= (tptp.small X) (|tptp.'div:(Int*Int)>Int'| (|tptp.'div:(Int*Int)>Int'| (tptp.v0 X) 2) 2))))
(assert (forall ((X Int)) (= (tptp.f2 X) (* X X))))
(assert (= tptp.g2 1))
(assert (forall ((X Int) (Y Int)) (= (tptp.f3 X Y) (- (* 2 (+ (+ X X) X)) Y))))
(assert (forall ((X Int)) (= (tptp.g3 X) X)))
(assert (forall ((X Int)) (= (tptp.h3 X) X)))
(assert (= tptp.i3 1))
(assert (= tptp.j3 1))
(assert (forall ((X Int) (Y Int) (Z Int)) (let ((_let_1 (- X 1))) (let ((_let_2 (tptp.u3 X Y Z))) (let ((_let_3 (<= X 0))) (and (=> _let_3 (= _let_2 Y)) (=> (not _let_3) (= _let_2 (tptp.f3 (tptp.u3 _let_1 Y Z) (tptp.v3 _let_1 Y Z))))))))))
(assert (forall ((X Int) (Y Int) (Z Int)) (let ((_let_1 (tptp.v3 X Y Z))) (let ((_let_2 (<= X 0))) (and (=> _let_2 (= _let_1 Z)) (=> (not _let_2) (= _let_1 (tptp.g3 (tptp.u3 (- X 1) Y Z)))))))))
(assert (forall ((X Int)) (= (tptp.w3 X) (tptp.u3 (tptp.h3 X) tptp.i3 tptp.j3))))
(assert (forall ((X Int)) (= (tptp.h2 X) (tptp.w3 X))))
(assert (forall ((X Int) (Y Int)) (let ((_let_1 (tptp.u2 X Y))) (let ((_let_2 (<= X 0))) (and (=> _let_2 (= _let_1 Y)) (=> (not _let_2) (= _let_1 (tptp.f2 (tptp.u2 (- X 1) Y)))))))))
(assert (forall ((X Int)) (= (tptp.v2 X) (tptp.u2 tptp.g2 (tptp.h2 X)))))
(assert (forall ((X Int)) (= (tptp.fast X) (|tptp.'div:(Int*Int)>Int'| (tptp.v2 X) (+ 2 2)))))
(assert (not (not (exists ((C Int)) (and (>= C 0) (not (= (tptp.small C) (tptp.fast C))))))))
(check-sat)
(exit)
